p cnf 33 72
1 2 3 4 0
1 2 -3 8 0
1 -2 3 5 0
1 -2 -3 7 0
-1 2 3 6 0
-1 2 -3 9 0
-1 -2 3 10 0
-1 -2 -3 9 0
11 12 13 1 2 3 14 0
11 12 13 1 2 -3 30 0
11 12 13 1 -2 3 15 0
11 12 13 1 -2 -3 15 0
11 12 13 -1 2 3 15 0
11 12 13 -1 2 -3 15 0
11 12 13 -1 -2 3 15 0
11 12 13 -1 -2 -3 15 0
11 12 -13 1 2 3 17 0
11 12 -13 1 2 -3 16 0
11 12 -13 1 -2 3 18 0
11 12 -13 1 -2 -3 15 0
11 12 -13 -1 2 3 15 0
11 12 -13 -1 2 -3 15 0
11 12 -13 -1 -2 3 15 0
11 12 -13 -1 -2 -3 15 0
11 -12 13 1 2 3 14 0
11 -12 13 1 2 -3 16 0
11 -12 13 1 -2 3 19 0
11 -12 13 1 -2 -3 31 0
11 -12 13 -1 2 3 15 0
11 -12 13 -1 2 -3 15 0
11 -12 13 -1 -2 3 15 0
11 -12 13 -1 -2 -3 15 0
11 -12 -13 1 2 3 20 0
11 -12 -13 1 2 -3 21 0
11 -12 -13 1 -2 3 22 0
11 -12 -13 1 -2 -3 27 0
11 -12 -13 -1 2 3 20 0
11 -12 -13 -1 2 -3 15 0
11 -12 -13 -1 -2 3 15 0
11 -12 -13 -1 -2 -3 15 0
-11 12 13 1 2 3 15 0
-11 12 13 1 2 -3 30 0
-11 12 13 1 -2 3 19 0
-11 12 13 1 -2 -3 29 0
-11 12 13 -1 2 3 23 0
-11 12 13 -1 2 -3 24 0
-11 12 13 -1 -2 3 15 0
-11 12 13 -1 -2 -3 15 0
-11 12 -13 1 2 3 15 0
-11 12 -13 1 2 -3 15 0
-11 12 -13 1 -2 3 28 0
-11 12 -13 1 -2 -3 32 0
-11 12 -13 -1 2 3 24 0
-11 12 -13 -1 2 -3 24 0
-11 12 -13 -1 -2 3 15 0
-11 12 -13 -1 -2 -3 24 0
-11 -12 13 1 2 3 15 0
-11 -12 13 1 2 -3 15 0
-11 -12 13 1 -2 3 15 0
-11 -12 13 1 -2 -3 33 0
-11 -12 13 -1 2 3 15 0
-11 -12 13 -1 2 -3 15 0
-11 -12 13 -1 -2 3 25 0
-11 -12 13 -1 -2 -3 15 0
-11 -12 -13 1 2 3 15 0
-11 -12 -13 1 2 -3 26 0
-11 -12 -13 1 -2 3 28 0
-11 -12 -13 1 -2 -3 15 0
-11 -12 -13 -1 2 3 15 0
-11 -12 -13 -1 2 -3 15 0
-11 -12 -13 -1 -2 3 15 0
-11 -12 -13 -1 -2 -3 24 0
